10
40
0 1 25 3
0 2 29 0
0 3 33 1
0 4 29 9
0 5 28 3
0 6 30 6
0 7 28 3
0 8 35 4
0 9 25 2
1 2 34 7
1 3 26 2
1 4 22 7
1 5 25 10
1 6 25 0
1 7 31 0
1 8 27 7
1 9 23 0
2 3 25 1
2 4 25 3
2 5 23 6
2 6 28 11
2 7 33 4
2 8 25 7
2 9 25 4
3 4 23 6
3 5 29 10
3 6 26 0
3 7 20 9
3 8 33 1
3 9 25 5
4 5 25 4
4 6 32 8
4 7 26 1
4 8 23 10
4 9 30 1
5 6 29 1
5 7 21 4
5 8 23 7
5 9 25 8
6 7 24 10
6 8 28 11
6 9 20 6
7 8 25 3
7 9 29 4
8 9 35 0